proyfinal/src/viki/013/experimentInOfficeAgust.take6.output/85355424-684d-412d-b9cc-44be997df580.als.dat
{'cnf.clauses': '118081',
 'cnf.totvars': '69608',
 'conflict literals': '79',
 'conflicts': '28',
 'decisions': '8541',
 'memused.mb': '15.43',
 'outcome': 'UNSAT',
 'propagations': '33600',
 'restarts': '1',
 'solver.msecs': 31,
 'task.msecs': 106}
