proyfinal/src/viki/013/experimentInOfficeAgust.take6.output/85355424-684d-412d-b9cc-44be997df580.als.out
Reading from standard input... Use '--help' for help.
============================[ Problem Statistics ]=============================
|                                                                             |
|  Number of variables:         69608                                         |
|  Number of clauses:          118081                                         |
|  Parse time:                   0.02 s                                       |
|                                                                             |
============================[ Search Statistics ]==============================
| Conflicts |          ORIGINAL         |          LEARNT          | Progress |
|           |    Vars  Clauses Literals |    Limit  Clauses Lit/Cl |          |
===============================================================================
===============================================================================
restarts              : 1
conflicts             : 28             (901 /sec)
decisions             : 8541           (0.00 % random) (274904 /sec)
propagations          : 33600          (1081464 /sec)
conflict literals     : 79             (0.00 % deleted)
Memory used           : 15.43 MB
CPU time              : 0.031069 s

UNSATISFIABLE
